data/mps_files/q3/161_2.mps
NAME foo
ROWS
 N  OBJ
 E  allocateEach[1]
 E  allocateAllCash
 G  findWorstP[1,2]
 G  findWorstP[1,3]
 G  findWorstP[1,4]
 G  findWorstP[1,5]
 G  findWorstP[1,6]
 G  findWorstP[1,7]
 G  findWorstP[1,8]
 G  findWorstP[1,9]
 G  findWorstP[2,1]
 G  findWorstP[2,3]
 G  findWorstP[2,4]
 G  findWorstP[2,5]
 G  findWorstP[2,6]
 G  findWorstP[2,7]
 G  findWorstP[2,8]
 G  findWorstP[2,9]
 G  findWorstP[3,1]
 G  findWorstP[3,2]
 G  findWorstP[3,4]
 G  findWorstP[3,5]
 G  findWorstP[3,6]
 G  findWorstP[3,7]
 G  findWorstP[3,8]
 G  findWorstP[3,9]
 G  findWorstP[4,1]
 G  findWorstP[4,2]
 G  findWorstP[4,3]
 G  findWorstP[4,5]
 G  findWorstP[4,6]
 G  findWorstP[4,7]
 G  findWorstP[4,8]
 G  findWorstP[4,9]
 G  findWorstP[5,1]
 G  findWorstP[5,2]
 G  findWorstP[5,3]
 G  findWorstP[5,4]
 G  findWorstP[5,6]
 G  findWorstP[5,7]
 G  findWorstP[5,8]
 G  findWorstP[5,9]
 G  findWorstP[6,1]
 G  findWorstP[6,2]
 G  findWorstP[6,3]
 G  findWorstP[6,4]
 G  findWorstP[6,5]
 G  findWorstP[6,7]
 G  findWorstP[6,8]
 G  findWorstP[6,9]
 G  findWorstP[7,1]
 G  findWorstP[7,2]
 G  findWorstP[7,3]
 G  findWorstP[7,4]
 G  findWorstP[7,5]
 G  findWorstP[7,6]
 G  findWorstP[7,8]
 G  findWorstP[7,9]
 G  findWorstP[8,1]
 G  findWorstP[8,2]
 G  findWorstP[8,3]
 G  findWorstP[8,4]
 G  findWorstP[8,5]
 G  findWorstP[8,6]
 G  findWorstP[8,7]
 G  findWorstP[8,9]
 G  findWorstP[9,1]
 G  findWorstP[9,2]
 G  findWorstP[9,3]
 G  findWorstP[9,4]
 G  findWorstP[9,5]
 G  findWorstP[9,6]
 G  findWorstP[9,7]
 G  findWorstP[9,8]
COLUMNS
    z         OBJ       1
    z         findWorstP[1,2]  1
    z         findWorstP[1,3]  1
    z         findWorstP[1,4]  1
    z         findWorstP[1,5]  1
    z         findWorstP[1,6]  1
    z         findWorstP[1,7]  1
    z         findWorstP[1,8]  1
    z         findWorstP[1,9]  1
    z         findWorstP[2,1]  1
    z         findWorstP[2,3]  1
    z         findWorstP[2,4]  1
    z         findWorstP[2,5]  1
    z         findWorstP[2,6]  1
    z         findWorstP[2,7]  1
    z         findWorstP[2,8]  1
    z         findWorstP[2,9]  1
    z         findWorstP[3,1]  1
    z         findWorstP[3,2]  1
    z         findWorstP[3,4]  1
    z         findWorstP[3,5]  1
    z         findWorstP[3,6]  1
    z         findWorstP[3,7]  1
    z         findWorstP[3,8]  1
    z         findWorstP[3,9]  1
    z         findWorstP[4,1]  1
    z         findWorstP[4,2]  1
    z         findWorstP[4,3]  1
    z         findWorstP[4,5]  1
    z         findWorstP[4,6]  1
    z         findWorstP[4,7]  1
    z         findWorstP[4,8]  1
    z         findWorstP[4,9]  1
    z         findWorstP[5,1]  1
    z         findWorstP[5,2]  1
    z         findWorstP[5,3]  1
    z         findWorstP[5,4]  1
    z         findWorstP[5,6]  1
    z         findWorstP[5,7]  1
    z         findWorstP[5,8]  1
    z         findWorstP[5,9]  1
    z         findWorstP[6,1]  1
    z         findWorstP[6,2]  1
    z         findWorstP[6,3]  1
    z         findWorstP[6,4]  1
    z         findWorstP[6,5]  1
    z         findWorstP[6,7]  1
    z         findWorstP[6,8]  1
    z         findWorstP[6,9]  1
    z         findWorstP[7,1]  1
    z         findWorstP[7,2]  1
    z         findWorstP[7,3]  1
    z         findWorstP[7,4]  1
    z         findWorstP[7,5]  1
    z         findWorstP[7,6]  1
    z         findWorstP[7,8]  1
    z         findWorstP[7,9]  1
    z         findWorstP[8,1]  1
    z         findWorstP[8,2]  1
    z         findWorstP[8,3]  1
    z         findWorstP[8,4]  1
    z         findWorstP[8,5]  1
    z         findWorstP[8,6]  1
    z         findWorstP[8,7]  1
    z         findWorstP[8,9]  1
    z         findWorstP[9,1]  1
    z         findWorstP[9,2]  1
    z         findWorstP[9,3]  1
    z         findWorstP[9,4]  1
    z         findWorstP[9,5]  1
    z         findWorstP[9,6]  1
    z         findWorstP[9,7]  1
    z         findWorstP[9,8]  1
    cashProportion[1]  allocateAllCash  1
    cashProportion[1]  findWorstP[1,2]  2.5087807325639738e-01
    cashProportion[1]  findWorstP[1,3]  2.5087807325639738e-01
    cashProportion[1]  findWorstP[1,4]  2.5087807325639738e-01
    cashProportion[1]  findWorstP[1,5]  2.5087807325639738e-01
    cashProportion[1]  findWorstP[1,6]  2.5087807325639738e-01
    cashProportion[1]  findWorstP[1,7]  2.5087807325639738e-01
    cashProportion[1]  findWorstP[1,8]  2.5087807325639738e-01
    cashProportion[1]  findWorstP[1,9]  2.5087807325639738e-01
    cashProportion[1]  findWorstP[2,1]  -1.3658714259697688e-01
    cashProportion[1]  findWorstP[3,1]  -3.4698126301179744e-01
    cashProportion[1]  findWorstP[4,1]  -1.3905627143784188e-01
    cashProportion[1]  findWorstP[5,1]  -9.6092248558616267e-01
    cashProportion[1]  findWorstP[6,1]  -1.3851694523963434e-01
    cashProportion[1]  findWorstP[7,1]  -1.8162005085361427e-01
    cashProportion[1]  findWorstP[8,1]  -4.3478260869565216e-01
    cashProportion[1]  findWorstP[9,1]  -0.648508430609598
    cashProportion[2]  allocateAllCash  1
    cashProportion[2]  findWorstP[1,2]  -2.5087807325639738e-01
    cashProportion[2]  findWorstP[2,1]  1.3658714259697688e-01
    cashProportion[2]  findWorstP[2,3]  1.3658714259697688e-01
    cashProportion[2]  findWorstP[2,4]  1.3658714259697688e-01
    cashProportion[2]  findWorstP[2,5]  1.3658714259697688e-01
    cashProportion[2]  findWorstP[2,6]  1.3658714259697688e-01
    cashProportion[2]  findWorstP[2,7]  1.3658714259697688e-01
    cashProportion[2]  findWorstP[2,8]  1.3658714259697688e-01
    cashProportion[2]  findWorstP[2,9]  1.3658714259697688e-01
    cashProportion[2]  findWorstP[3,2]  -3.4698126301179744e-01
    cashProportion[2]  findWorstP[4,2]  -1.3905627143784188e-01
    cashProportion[2]  findWorstP[5,2]  -9.6092248558616267e-01
    cashProportion[2]  findWorstP[6,2]  -1.3851694523963434e-01
    cashProportion[2]  findWorstP[7,2]  -1.8162005085361427e-01
    cashProportion[2]  findWorstP[8,2]  -4.3478260869565216e-01
    cashProportion[2]  findWorstP[9,2]  -0.648508430609598
    cashProportion[3]  allocateAllCash  1
    cashProportion[3]  findWorstP[1,3]  -2.5087807325639738e-01
    cashProportion[3]  findWorstP[2,3]  -1.3658714259697688e-01
    cashProportion[3]  findWorstP[3,1]  3.4698126301179744e-01
    cashProportion[3]  findWorstP[3,2]  3.4698126301179744e-01
    cashProportion[3]  findWorstP[3,4]  3.4698126301179744e-01
    cashProportion[3]  findWorstP[3,5]  3.4698126301179744e-01
    cashProportion[3]  findWorstP[3,6]  3.4698126301179744e-01
    cashProportion[3]  findWorstP[3,7]  3.4698126301179744e-01
    cashProportion[3]  findWorstP[3,8]  3.4698126301179744e-01
    cashProportion[3]  findWorstP[3,9]  3.4698126301179744e-01
    cashProportion[3]  findWorstP[4,3]  -1.3905627143784188e-01
    cashProportion[3]  findWorstP[5,3]  -9.6092248558616267e-01
    cashProportion[3]  findWorstP[6,3]  -1.3851694523963434e-01
    cashProportion[3]  findWorstP[7,3]  -1.8162005085361427e-01
    cashProportion[3]  findWorstP[8,3]  -4.3478260869565216e-01
    cashProportion[3]  findWorstP[9,3]  -0.648508430609598
    cashProportion[4]  allocateAllCash  1
    cashProportion[4]  findWorstP[1,4]  -2.5087807325639738e-01
    cashProportion[4]  findWorstP[2,4]  -1.3658714259697688e-01
    cashProportion[4]  findWorstP[3,4]  -3.4698126301179744e-01
    cashProportion[4]  findWorstP[4,1]  1.3905627143784188e-01
    cashProportion[4]  findWorstP[4,2]  1.3905627143784188e-01
    cashProportion[4]  findWorstP[4,3]  1.3905627143784188e-01
    cashProportion[4]  findWorstP[4,5]  1.3905627143784188e-01
    cashProportion[4]  findWorstP[4,6]  1.3905627143784188e-01
    cashProportion[4]  findWorstP[4,7]  1.3905627143784188e-01
    cashProportion[4]  findWorstP[4,8]  1.3905627143784188e-01
    cashProportion[4]  findWorstP[4,9]  1.3905627143784188e-01
    cashProportion[4]  findWorstP[5,4]  -9.6092248558616267e-01
    cashProportion[4]  findWorstP[6,4]  -1.3851694523963434e-01
    cashProportion[4]  findWorstP[7,4]  -1.8162005085361427e-01
    cashProportion[4]  findWorstP[8,4]  -4.3478260869565216e-01
    cashProportion[4]  findWorstP[9,4]  -0.648508430609598
    cashProportion[5]  allocateAllCash  1
    cashProportion[5]  findWorstP[1,5]  -2.5087807325639738e-01
    cashProportion[5]  findWorstP[2,5]  -1.3658714259697688e-01
    cashProportion[5]  findWorstP[3,5]  -3.4698126301179744e-01
    cashProportion[5]  findWorstP[4,5]  -1.3905627143784188e-01
    cashProportion[5]  findWorstP[5,1]  9.6092248558616267e-01
    cashProportion[5]  findWorstP[5,2]  9.6092248558616267e-01
    cashProportion[5]  findWorstP[5,3]  9.6092248558616267e-01
    cashProportion[5]  findWorstP[5,4]  9.6092248558616267e-01
    cashProportion[5]  findWorstP[5,6]  9.6092248558616267e-01
    cashProportion[5]  findWorstP[5,7]  9.6092248558616267e-01
    cashProportion[5]  findWorstP[5,8]  9.6092248558616267e-01
    cashProportion[5]  findWorstP[5,9]  9.6092248558616267e-01
    cashProportion[5]  findWorstP[6,5]  -1.3851694523963434e-01
    cashProportion[5]  findWorstP[7,5]  -1.8162005085361427e-01
    cashProportion[5]  findWorstP[8,5]  -4.3478260869565216e-01
    cashProportion[5]  findWorstP[9,5]  -0.648508430609598
    cashProportion[6]  allocateAllCash  1
    cashProportion[6]  findWorstP[1,6]  -2.5087807325639738e-01
    cashProportion[6]  findWorstP[2,6]  -1.3658714259697688e-01
    cashProportion[6]  findWorstP[3,6]  -3.4698126301179744e-01
    cashProportion[6]  findWorstP[4,6]  -1.3905627143784188e-01
    cashProportion[6]  findWorstP[5,6]  -9.6092248558616267e-01
    cashProportion[6]  findWorstP[6,1]  1.3851694523963434e-01
    cashProportion[6]  findWorstP[6,2]  1.3851694523963434e-01
    cashProportion[6]  findWorstP[6,3]  1.3851694523963434e-01
    cashProportion[6]  findWorstP[6,4]  1.3851694523963434e-01
    cashProportion[6]  findWorstP[6,5]  1.3851694523963434e-01
    cashProportion[6]  findWorstP[6,7]  1.3851694523963434e-01
    cashProportion[6]  findWorstP[6,8]  1.3851694523963434e-01
    cashProportion[6]  findWorstP[6,9]  1.3851694523963434e-01
    cashProportion[6]  findWorstP[7,6]  -1.8162005085361427e-01
    cashProportion[6]  findWorstP[8,6]  -4.3478260869565216e-01
    cashProportion[6]  findWorstP[9,6]  -0.648508430609598
    cashProportion[7]  allocateAllCash  1
    cashProportion[7]  findWorstP[1,7]  -2.5087807325639738e-01
    cashProportion[7]  findWorstP[2,7]  -1.3658714259697688e-01
    cashProportion[7]  findWorstP[3,7]  -3.4698126301179744e-01
    cashProportion[7]  findWorstP[4,7]  -1.3905627143784188e-01
    cashProportion[7]  findWorstP[5,7]  -9.6092248558616267e-01
    cashProportion[7]  findWorstP[6,7]  -1.3851694523963434e-01
    cashProportion[7]  findWorstP[7,1]  1.8162005085361427e-01
    cashProportion[7]  findWorstP[7,2]  1.8162005085361427e-01
    cashProportion[7]  findWorstP[7,3]  1.8162005085361427e-01
    cashProportion[7]  findWorstP[7,4]  1.8162005085361427e-01
    cashProportion[7]  findWorstP[7,5]  1.8162005085361427e-01
    cashProportion[7]  findWorstP[7,6]  1.8162005085361427e-01
    cashProportion[7]  findWorstP[7,8]  1.8162005085361427e-01
    cashProportion[7]  findWorstP[7,9]  1.8162005085361427e-01
    cashProportion[7]  findWorstP[8,7]  -4.3478260869565216e-01
    cashProportion[7]  findWorstP[9,7]  -0.648508430609598
    cashProportion[8]  allocateAllCash  1
    cashProportion[8]  findWorstP[1,8]  -2.5087807325639738e-01
    cashProportion[8]  findWorstP[2,8]  -1.3658714259697688e-01
    cashProportion[8]  findWorstP[3,8]  -3.4698126301179744e-01
    cashProportion[8]  findWorstP[4,8]  -1.3905627143784188e-01
    cashProportion[8]  findWorstP[5,8]  -9.6092248558616267e-01
    cashProportion[8]  findWorstP[6,8]  -1.3851694523963434e-01
    cashProportion[8]  findWorstP[7,8]  -1.8162005085361427e-01
    cashProportion[8]  findWorstP[8,1]  4.3478260869565216e-01
    cashProportion[8]  findWorstP[8,2]  4.3478260869565216e-01
    cashProportion[8]  findWorstP[8,3]  4.3478260869565216e-01
    cashProportion[8]  findWorstP[8,4]  4.3478260869565216e-01
    cashProportion[8]  findWorstP[8,5]  4.3478260869565216e-01
    cashProportion[8]  findWorstP[8,6]  4.3478260869565216e-01
    cashProportion[8]  findWorstP[8,7]  4.3478260869565216e-01
    cashProportion[8]  findWorstP[8,9]  4.3478260869565216e-01
    cashProportion[8]  findWorstP[9,8]  -0.648508430609598
    cashProportion[9]  allocateAllCash  1
    cashProportion[9]  findWorstP[1,9]  -2.5087807325639738e-01
    cashProportion[9]  findWorstP[2,9]  -1.3658714259697688e-01
    cashProportion[9]  findWorstP[3,9]  -3.4698126301179744e-01
    cashProportion[9]  findWorstP[4,9]  -1.3905627143784188e-01
    cashProportion[9]  findWorstP[5,9]  -9.6092248558616267e-01
    cashProportion[9]  findWorstP[6,9]  -1.3851694523963434e-01
    cashProportion[9]  findWorstP[7,9]  -1.8162005085361427e-01
    cashProportion[9]  findWorstP[8,9]  -4.3478260869565216e-01
    cashProportion[9]  findWorstP[9,1]  0.648508430609598
    cashProportion[9]  findWorstP[9,2]  0.648508430609598
    cashProportion[9]  findWorstP[9,3]  0.648508430609598
    cashProportion[9]  findWorstP[9,4]  0.648508430609598
    cashProportion[9]  findWorstP[9,5]  0.648508430609598
    cashProportion[9]  findWorstP[9,6]  0.648508430609598
    cashProportion[9]  findWorstP[9,7]  0.648508430609598
    cashProportion[9]  findWorstP[9,8]  0.648508430609598
    MARKER    'MARKER'                 'INTORG'
    x[1,1]    allocateEach[1]  1
    x[1,1]    findWorstP[1,2]  7.4912192674360256e-01
    x[1,1]    findWorstP[1,3]  7.4912192674360256e-01
    x[1,1]    findWorstP[1,4]  7.4912192674360256e-01
    x[1,1]    findWorstP[1,5]  7.4912192674360256e-01
    x[1,1]    findWorstP[1,6]  7.4912192674360256e-01
    x[1,1]    findWorstP[1,7]  7.4912192674360256e-01
    x[1,1]    findWorstP[1,8]  7.4912192674360256e-01
    x[1,1]    findWorstP[1,9]  7.4912192674360256e-01
    x[1,1]    findWorstP[2,1]  -8.6341285740302320e-01
    x[1,1]    findWorstP[3,1]  -6.5301873698820267e-01
    x[1,1]    findWorstP[4,1]  -8.6094372856215817e-01
    x[1,1]    findWorstP[5,1]  -3.9077514413837278e-02
    x[1,1]    findWorstP[6,1]  -8.6148305476036569e-01
    x[1,1]    findWorstP[7,1]  -8.1837994914638568e-01
    x[1,1]    findWorstP[8,1]  -5.6521739130434778e-01
    x[1,1]    findWorstP[9,1]  -3.5149156939040205e-01
    x[2,1]    allocateEach[1]  1
    x[2,1]    findWorstP[1,2]  -7.4912192674360256e-01
    x[2,1]    findWorstP[2,1]  8.6341285740302320e-01
    x[2,1]    findWorstP[2,3]  8.6341285740302320e-01
    x[2,1]    findWorstP[2,4]  8.6341285740302320e-01
    x[2,1]    findWorstP[2,5]  8.6341285740302320e-01
    x[2,1]    findWorstP[2,6]  8.6341285740302320e-01
    x[2,1]    findWorstP[2,7]  8.6341285740302320e-01
    x[2,1]    findWorstP[2,8]  8.6341285740302320e-01
    x[2,1]    findWorstP[2,9]  8.6341285740302320e-01
    x[2,1]    findWorstP[3,2]  -6.5301873698820267e-01
    x[2,1]    findWorstP[4,2]  -8.6094372856215817e-01
    x[2,1]    findWorstP[5,2]  -3.9077514413837278e-02
    x[2,1]    findWorstP[6,2]  -8.6148305476036569e-01
    x[2,1]    findWorstP[7,2]  -8.1837994914638568e-01
    x[2,1]    findWorstP[8,2]  -5.6521739130434778e-01
    x[2,1]    findWorstP[9,2]  -3.5149156939040205e-01
    x[3,1]    allocateEach[1]  1
    x[3,1]    findWorstP[1,3]  -7.4912192674360256e-01
    x[3,1]    findWorstP[2,3]  -8.6341285740302320e-01
    x[3,1]    findWorstP[3,1]  6.5301873698820267e-01
    x[3,1]    findWorstP[3,2]  6.5301873698820267e-01
    x[3,1]    findWorstP[3,4]  6.5301873698820267e-01
    x[3,1]    findWorstP[3,5]  6.5301873698820267e-01
    x[3,1]    findWorstP[3,6]  6.5301873698820267e-01
    x[3,1]    findWorstP[3,7]  6.5301873698820267e-01
    x[3,1]    findWorstP[3,8]  6.5301873698820267e-01
    x[3,1]    findWorstP[3,9]  6.5301873698820267e-01
    x[3,1]    findWorstP[4,3]  -8.6094372856215817e-01
    x[3,1]    findWorstP[5,3]  -3.9077514413837278e-02
    x[3,1]    findWorstP[6,3]  -8.6148305476036569e-01
    x[3,1]    findWorstP[7,3]  -8.1837994914638568e-01
    x[3,1]    findWorstP[8,3]  -5.6521739130434778e-01
    x[3,1]    findWorstP[9,3]  -3.5149156939040205e-01
    x[4,1]    allocateEach[1]  1
    x[4,1]    findWorstP[1,4]  -7.4912192674360256e-01
    x[4,1]    findWorstP[2,4]  -8.6341285740302320e-01
    x[4,1]    findWorstP[3,4]  -6.5301873698820267e-01
    x[4,1]    findWorstP[4,1]  8.6094372856215817e-01
    x[4,1]    findWorstP[4,2]  8.6094372856215817e-01
    x[4,1]    findWorstP[4,3]  8.6094372856215817e-01
    x[4,1]    findWorstP[4,5]  8.6094372856215817e-01
    x[4,1]    findWorstP[4,6]  8.6094372856215817e-01
    x[4,1]    findWorstP[4,7]  8.6094372856215817e-01
    x[4,1]    findWorstP[4,8]  8.6094372856215817e-01
    x[4,1]    findWorstP[4,9]  8.6094372856215817e-01
    x[4,1]    findWorstP[5,4]  -3.9077514413837278e-02
    x[4,1]    findWorstP[6,4]  -8.6148305476036569e-01
    x[4,1]    findWorstP[7,4]  -8.1837994914638568e-01
    x[4,1]    findWorstP[8,4]  -5.6521739130434778e-01
    x[4,1]    findWorstP[9,4]  -3.5149156939040205e-01
    x[5,1]    allocateEach[1]  1
    x[5,1]    findWorstP[1,5]  -7.4912192674360256e-01
    x[5,1]    findWorstP[2,5]  -8.6341285740302320e-01
    x[5,1]    findWorstP[3,5]  -6.5301873698820267e-01
    x[5,1]    findWorstP[4,5]  -8.6094372856215817e-01
    x[5,1]    findWorstP[5,1]  3.9077514413837278e-02
    x[5,1]    findWorstP[5,2]  3.9077514413837278e-02
    x[5,1]    findWorstP[5,3]  3.9077514413837278e-02
    x[5,1]    findWorstP[5,4]  3.9077514413837278e-02
    x[5,1]    findWorstP[5,6]  3.9077514413837278e-02
    x[5,1]    findWorstP[5,7]  3.9077514413837278e-02
    x[5,1]    findWorstP[5,8]  3.9077514413837278e-02
    x[5,1]    findWorstP[5,9]  3.9077514413837278e-02
    x[5,1]    findWorstP[6,5]  -8.6148305476036569e-01
    x[5,1]    findWorstP[7,5]  -8.1837994914638568e-01
    x[5,1]    findWorstP[8,5]  -5.6521739130434778e-01
    x[5,1]    findWorstP[9,5]  -3.5149156939040205e-01
    x[6,1]    allocateEach[1]  1
    x[6,1]    findWorstP[1,6]  -7.4912192674360256e-01
    x[6,1]    findWorstP[2,6]  -8.6341285740302320e-01
    x[6,1]    findWorstP[3,6]  -6.5301873698820267e-01
    x[6,1]    findWorstP[4,6]  -8.6094372856215817e-01
    x[6,1]    findWorstP[5,6]  -3.9077514413837278e-02
    x[6,1]    findWorstP[6,1]  8.6148305476036569e-01
    x[6,1]    findWorstP[6,2]  8.6148305476036569e-01
    x[6,1]    findWorstP[6,3]  8.6148305476036569e-01
    x[6,1]    findWorstP[6,4]  8.6148305476036569e-01
    x[6,1]    findWorstP[6,5]  8.6148305476036569e-01
    x[6,1]    findWorstP[6,7]  8.6148305476036569e-01
    x[6,1]    findWorstP[6,8]  8.6148305476036569e-01
    x[6,1]    findWorstP[6,9]  8.6148305476036569e-01
    x[6,1]    findWorstP[7,6]  -8.1837994914638568e-01
    x[6,1]    findWorstP[8,6]  -5.6521739130434778e-01
    x[6,1]    findWorstP[9,6]  -3.5149156939040205e-01
    x[7,1]    allocateEach[1]  1
    x[7,1]    findWorstP[1,7]  -7.4912192674360256e-01
    x[7,1]    findWorstP[2,7]  -8.6341285740302320e-01
    x[7,1]    findWorstP[3,7]  -6.5301873698820267e-01
    x[7,1]    findWorstP[4,7]  -8.6094372856215817e-01
    x[7,1]    findWorstP[5,7]  -3.9077514413837278e-02
    x[7,1]    findWorstP[6,7]  -8.6148305476036569e-01
    x[7,1]    findWorstP[7,1]  8.1837994914638568e-01
    x[7,1]    findWorstP[7,2]  8.1837994914638568e-01
    x[7,1]    findWorstP[7,3]  8.1837994914638568e-01
    x[7,1]    findWorstP[7,4]  8.1837994914638568e-01
    x[7,1]    findWorstP[7,5]  8.1837994914638568e-01
    x[7,1]    findWorstP[7,6]  8.1837994914638568e-01
    x[7,1]    findWorstP[7,8]  8.1837994914638568e-01
    x[7,1]    findWorstP[7,9]  8.1837994914638568e-01
    x[7,1]    findWorstP[8,7]  -5.6521739130434778e-01
    x[7,1]    findWorstP[9,7]  -3.5149156939040205e-01
    x[8,1]    allocateEach[1]  1
    x[8,1]    findWorstP[1,8]  -7.4912192674360256e-01
    x[8,1]    findWorstP[2,8]  -8.6341285740302320e-01
    x[8,1]    findWorstP[3,8]  -6.5301873698820267e-01
    x[8,1]    findWorstP[4,8]  -8.6094372856215817e-01
    x[8,1]    findWorstP[5,8]  -3.9077514413837278e-02
    x[8,1]    findWorstP[6,8]  -8.6148305476036569e-01
    x[8,1]    findWorstP[7,8]  -8.1837994914638568e-01
    x[8,1]    findWorstP[8,1]  5.6521739130434778e-01
    x[8,1]    findWorstP[8,2]  5.6521739130434778e-01
    x[8,1]    findWorstP[8,3]  5.6521739130434778e-01
    x[8,1]    findWorstP[8,4]  5.6521739130434778e-01
    x[8,1]    findWorstP[8,5]  5.6521739130434778e-01
    x[8,1]    findWorstP[8,6]  5.6521739130434778e-01
    x[8,1]    findWorstP[8,7]  5.6521739130434778e-01
    x[8,1]    findWorstP[8,9]  5.6521739130434778e-01
    x[8,1]    findWorstP[9,8]  -3.5149156939040205e-01
    x[9,1]    allocateEach[1]  1
    x[9,1]    findWorstP[1,9]  -7.4912192674360256e-01
    x[9,1]    findWorstP[2,9]  -8.6341285740302320e-01
    x[9,1]    findWorstP[3,9]  -6.5301873698820267e-01
    x[9,1]    findWorstP[4,9]  -8.6094372856215817e-01
    x[9,1]    findWorstP[5,9]  -3.9077514413837278e-02
    x[9,1]    findWorstP[6,9]  -8.6148305476036569e-01
    x[9,1]    findWorstP[7,9]  -8.1837994914638568e-01
    x[9,1]    findWorstP[8,9]  -5.6521739130434778e-01
    x[9,1]    findWorstP[9,1]  3.5149156939040205e-01
    x[9,1]    findWorstP[9,2]  3.5149156939040205e-01
    x[9,1]    findWorstP[9,3]  3.5149156939040205e-01
    x[9,1]    findWorstP[9,4]  3.5149156939040205e-01
    x[9,1]    findWorstP[9,5]  3.5149156939040205e-01
    x[9,1]    findWorstP[9,6]  3.5149156939040205e-01
    x[9,1]    findWorstP[9,7]  3.5149156939040205e-01
    x[9,1]    findWorstP[9,8]  3.5149156939040205e-01
    MARKER    'MARKER'                 'INTEND'
RHS
    RHS1      allocateEach[1]  1
    RHS1      allocateAllCash  1
BOUNDS
 UP BND1      z         1
 MI BND1      cashProportion[1]
 UP BND1      cashProportion[1]  1
 MI BND1      cashProportion[2]
 UP BND1      cashProportion[2]  1
 MI BND1      cashProportion[3]
 UP BND1      cashProportion[3]  1
 MI BND1      cashProportion[4]
 UP BND1      cashProportion[4]  1
 MI BND1      cashProportion[5]
 UP BND1      cashProportion[5]  1
 MI BND1      cashProportion[6]
 UP BND1      cashProportion[6]  1
 MI BND1      cashProportion[7]
 UP BND1      cashProportion[7]  1
 MI BND1      cashProportion[8]
 UP BND1      cashProportion[8]  1
 MI BND1      cashProportion[9]
 UP BND1      cashProportion[9]  1
 BV BND1      x[1,1]  
 BV BND1      x[2,1]  
 BV BND1      x[3,1]  
 BV BND1      x[4,1]  
 BV BND1      x[5,1]  
 BV BND1      x[6,1]  
 BV BND1      x[7,1]  
 BV BND1      x[8,1]  
 BV BND1      x[9,1]  
ENDATA
